datasets/2-dimensional/CL_05_25_09.vbp
2
1000 1000 
25
36 56 30
75 49 72
69 67 4
35 28 88
88 97 54
71 92 64
76 79 90
68 74 26
40 46 94
83 59 28
90 56 72
51 79 49
58 44 54
78 42 19
28 41 28
75 33 61
34 33 84
48 84 23
58 26 67
31 28 53
34 55 54
83 99 16
70 27 9
62 31 54
75 26 77
