datasets/2-dimensional/CL_05_25_09.txt
1000 1000 
0 30 36 56 
1 72 75 49 
2 4 69 67 
3 88 35 28 
4 54 88 97 
5 64 71 92 
6 90 76 79 
7 26 68 74 
8 94 40 46 
9 28 83 59 
10 72 90 56 
11 49 51 79 
12 54 58 44 
13 19 78 42 
14 28 28 41 
15 61 75 33 
16 84 34 33 
17 23 48 84 
18 67 58 26 
19 53 31 28 
20 54 34 55 
21 16 83 99 
22 9 70 27 
23 54 62 31 
24 77 75 26 
